p cnf 400 1
400 0
w 1 0.895023
w 2 1 0.90484
w 2 -1 0.3176
w 3 2 0.809546
w 3 -2 0.782171
w 4 3 0
w 4 -3 1
w 5 4 0
w 5 -4 1
w 6 5 0
w 6 -5 1
w 7 6 0
w 7 -6 1
w 8 7 0
w 8 -7 1
w 9 8 1
w 9 -8 0
w 10 9 0
w 10 -9 1
w 11 10 0.278148
w 11 -10 0.500731
w 12 11 0.60806
w 12 -11 0.858445
w 13 12 0.61808
w 13 -12 0.959046
w 14 13 0.513102
w 14 -13 0.924885
w 15 14 0.830703
w 15 -14 0.729925
w 16 15 0.612874
w 16 -15 0.778625
w 17 16 1
w 17 -16 0
w 18 17 0
w 18 -17 1
w 19 18 0
w 19 -18 1
w 20 19 1
w 20 -19 0
w 21 1 0.738682
w 21 -1 0.446495
w 22 21 2 0.367904
w 22 21 -2 0.3495
w 22 -21 2 0.0932178
w 22 -21 -2 0.868635
w 23 22 3 0
w 23 22 -3 1
w 23 -22 3 1
w 23 -22 -3 0
w 24 23 4 0.842528
w 24 23 -4 0.83246
w 24 -23 4 0.611012
w 24 -23 -4 0.622795
w 25 24 5 0.340937
w 25 24 -5 0.212609
w 25 -24 5 0.276037
w 25 -24 -5 0.119562
w 26 25 6 0
w 26 25 -6 1
w 26 -25 6 1
w 26 -25 -6 1
w 27 26 7 1
w 27 26 -7 0
w 27 -26 7 0
w 27 -26 -7 0
w 28 27 8 1
w 28 27 -8 0
w 28 -27 8 0
w 28 -27 -8 0
w 29 28 9 0.807243
w 29 28 -9 0.405988
w 29 -28 9 0.691565
w 29 -28 -9 0.774343
w 30 29 10 0.377691
w 30 29 -10 0.616871
w 30 -29 10 0.557806
w 30 -29 -10 0.988703
w 31 30 11 1
w 31 30 -11 1
w 31 -30 11 1
w 31 -30 -11 0
w 32 31 12 0
w 32 31 -12 0
w 32 -31 12 0
w 32 -31 -12 1
w 33 32 13 0.236958
w 33 32 -13 0.524023
w 33 -32 13 0.523085
w 33 -32 -13 0.0333806
w 34 33 14 0
w 34 33 -14 0
w 34 -33 14 1
w 34 -33 -14 0
w 35 34 15 0
w 35 34 -15 1
w 35 -34 15 0
w 35 -34 -15 0
w 36 35 16 0
w 36 35 -16 0
w 36 -35 16 0
w 36 -35 -16 1
w 37 36 17 0
w 37 36 -17 0
w 37 -36 17 1
w 37 -36 -17 0
w 38 37 18 1
w 38 37 -18 0
w 38 -37 18 1
w 38 -37 -18 1
w 39 38 19 1
w 39 38 -19 0
w 39 -38 19 1
w 39 -38 -19 1
w 40 39 20 0
w 40 39 -20 0
w 40 -39 20 0
w 40 -39 -20 1
w 41 21 1
w 41 -21 0
w 42 41 22 0
w 42 41 -22 0
w 42 -41 22 1
w 42 -41 -22 0
w 43 42 23 0.770095
w 43 42 -23 0.160114
w 43 -42 23 0.896146
w 43 -42 -23 0.469997
w 44 43 24 1
w 44 43 -24 0
w 44 -43 24 1
w 44 -43 -24 0
w 45 44 25 0.968922
w 45 44 -25 0.682539
w 45 -44 25 0.0489648
w 45 -44 -25 0.0712401
w 46 45 26 0.415757
w 46 45 -26 0.425527
w 46 -45 26 0.251071
w 46 -45 -26 0.427422
w 47 46 27 0
w 47 46 -27 0
w 47 -46 27 0
w 47 -46 -27 1
w 48 47 28 0
w 48 47 -28 1
w 48 -47 28 1
w 48 -47 -28 1
w 49 48 29 0
w 49 48 -29 0
w 49 -48 29 1
w 49 -48 -29 0
w 50 49 30 0
w 50 49 -30 0
w 50 -49 30 1
w 50 -49 -30 0
w 51 50 31 0
w 51 50 -31 0
w 51 -50 31 1
w 51 -50 -31 1
w 52 51 32 1
w 52 51 -32 0
w 52 -51 32 0
w 52 -51 -32 1
w 53 52 33 0
w 53 52 -33 1
w 53 -52 33 0
w 53 -52 -33 0
w 54 53 34 0.40096
w 54 53 -34 0.143596
w 54 -53 34 0.22441
w 54 -53 -34 0.961109
w 55 54 35 0.364084
w 55 54 -35 0.291353
w 55 -54 35 0.518607
w 55 -54 -35 0.399904
w 56 55 36 0
w 56 55 -36 1
w 56 -55 36 1
w 56 -55 -36 0
w 57 56 37 0
w 57 56 -37 0
w 57 -56 37 1
w 57 -56 -37 1
w 58 57 38 0
w 58 57 -38 0
w 58 -57 38 0
w 58 -57 -38 1
w 59 58 39 1
w 59 58 -39 0
w 59 -58 39 1
w 59 -58 -39 1
w 60 59 40 0.869377
w 60 59 -40 0.311079
w 60 -59 40 0.217649
w 60 -59 -40 0.830486
w 61 41 0
w 61 -41 1
w 62 61 42 1
w 62 61 -42 1
w 62 -61 42 0
w 62 -61 -42 1
w 63 62 43 0.35254
w 63 62 -43 0.136334
w 63 -62 43 0.370197
w 63 -62 -43 0.965291
w 64 63 44 0.199884
w 64 63 -44 0.123488
w 64 -63 44 0.848163
w 64 -63 -44 0.629188
w 65 64 45 1
w 65 64 -45 1
w 65 -64 45 0
w 65 -64 -45 0
w 66 65 46 0
w 66 65 -46 0
w 66 -65 46 1
w 66 -65 -46 1
w 67 66 47 1
w 67 66 -47 0
w 67 -66 47 1
w 67 -66 -47 1
w 68 67 48 0.671538
w 68 67 -48 0.131834
w 68 -67 48 0.983984
w 68 -67 -48 0.885532
w 69 68 49 0
w 69 68 -49 1
w 69 -68 49 1
w 69 -68 -49 1
w 70 69 50 0
w 70 69 -50 1
w 70 -69 50 1
w 70 -69 -50 1
w 71 70 51 0.579507
w 71 70 -51 0.393297
w 71 -70 51 0.99315
w 71 -70 -51 0.0599373
w 72 71 52 0.350726
w 72 71 -52 0.00878481
w 72 -71 52 0.661024
w 72 -71 -52 0.70154
w 73 72 53 0.689708
w 73 72 -53 0.270004
w 73 -72 53 0.475721
w 73 -72 -53 0.780516
w 74 73 54 0
w 74 73 -54 1
w 74 -73 54 1
w 74 -73 -54 0
w 75 74 55 1
w 75 74 -55 0
w 75 -74 55 1
w 75 -74 -55 0
w 76 75 56 0
w 76 75 -56 1
w 76 -75 56 1
w 76 -75 -56 1
w 77 76 57 1
w 77 76 -57 0
w 77 -76 57 1
w 77 -76 -57 1
w 78 77 58 0.679203
w 78 77 -58 0.547089
w 78 -77 58 0.7541
w 78 -77 -58 0.340227
w 79 78 59 0
w 79 78 -59 0
w 79 -78 59 0
w 79 -78 -59 1
w 80 79 60 0.938834
w 80 79 -60 0.303102
w 80 -79 60 0.262504
w 80 -79 -60 0.49087
w 81 61 0.600089
w 81 -61 0.244944
w 82 81 62 0
w 82 81 -62 0
w 82 -81 62 0
w 82 -81 -62 1
w 83 82 63 0.0606373
w 83 82 -63 0.973264
w 83 -82 63 0.987928
w 83 -82 -63 0.746015
w 84 83 64 0.184291
w 84 83 -64 0.491331
w 84 -83 64 0.38825
w 84 -83 -64 0.73138
w 85 84 65 0
w 85 84 -65 0
w 85 -84 65 1
w 85 -84 -65 1
w 86 85 66 0
w 86 85 -66 1
w 86 -85 66 0
w 86 -85 -66 0
w 87 86 67 0.719831
w 87 86 -67 0.431454
w 87 -86 67 0.173291
w 87 -86 -67 0.191796
w 88 87 68 0.510683
w 88 87 -68 0.680919
w 88 -87 68 0.561967
w 88 -87 -68 0.14146
w 89 88 69 1
w 89 88 -69 0
w 89 -88 69 1
w 89 -88 -69 1
w 90 89 70 0.637852
w 90 89 -70 0.859951
w 90 -89 70 0.212021
w 90 -89 -70 0.369232
w 91 90 71 0
w 91 90 -71 1
w 91 -90 71 0
w 91 -90 -71 1
w 92 91 72 0.815295
w 92 91 -72 0.267771
w 92 -91 72 0.28536
w 92 -91 -72 0.00176888
w 93 92 73 1
w 93 92 -73 0
w 93 -92 73 0
w 93 -92 -73 0
w 94 93 74 0
w 94 93 -74 1
w 94 -93 74 0
w 94 -93 -74 1
w 95 94 75 1
w 95 94 -75 1
w 95 -94 75 0
w 95 -94 -75 0
w 96 95 76 0.15136
w 96 95 -76 0.550934
w 96 -95 76 0.189657
w 96 -95 -76 0.520592
w 97 96 77 0.130155
w 97 96 -77 0.869833
w 97 -96 77 0.58824
w 97 -96 -77 0.829064
w 98 97 78 0.403535
w 98 97 -78 0.0968347
w 98 -97 78 0.0030762
w 98 -97 -78 0.405304
w 99 98 79 0
w 99 98 -79 0
w 99 -98 79 1
w 99 -98 -79 0
w 100 99 80 0.501462
w 100 99 -80 0.634614
w 100 -99 80 0.56411
w 100 -99 -80 0.540602
w 101 81 0.886473
w 101 -81 0.694466
w 102 101 82 0
w 102 101 -82 0
w 102 -101 82 1
w 102 -101 -82 0
w 103 102 83 0.880021
w 103 102 -83 0.784706
w 103 -102 83 0.991913
w 103 -102 -83 0.749854
w 104 103 84 0
w 104 103 -84 0
w 104 -103 84 1
w 104 -103 -84 1
w 105 104 85 0
w 105 104 -85 1
w 105 -104 85 1
w 105 -104 -85 0
w 106 105 86 0.29121
w 106 105 -86 0.348987
w 106 -105 86 0.704694
w 106 -105 -86 0.792672
w 107 106 87 0.268804
w 107 106 -87 0.333274
w 107 -106 87 0.678163
w 107 -106 -87 0.155276
w 108 107 88 0
w 108 107 -88 1
w 108 -107 88 1
w 108 -107 -88 1
w 109 108 89 0.561599
w 109 108 -89 0.125684
w 109 -108 89 0.645828
w 109 -108 -89 0.553511
w 110 109 90 0.018773
w 110 109 -90 0.374488
w 110 -109 90 0.343107
w 110 -109 -90 0.795253
w 111 110 91 0
w 111 110 -91 0
w 111 -110 91 1
w 111 -110 -91 0
w 112 111 92 0
w 112 111 -92 0
w 112 -111 92 1
w 112 -111 -92 0
w 113 112 93 0.618313
w 113 112 -93 0.21992
w 113 -112 93 0.918338
w 113 -112 -93 0.296476
w 114 113 94 1
w 114 113 -94 1
w 114 -113 94 1
w 114 -113 -94 0
w 115 114 95 0
w 115 114 -95 0
w 115 -114 95 1
w 115 -114 -95 0
w 116 115 96 1
w 116 115 -96 1
w 116 -115 96 0
w 116 -115 -96 0
w 117 116 97 1
w 117 116 -97 0
w 117 -116 97 1
w 117 -116 -97 1
w 118 117 98 0.0803176
w 118 117 -98 0.880029
w 118 -117 98 0.326378
w 118 -117 -98 0.031434
w 119 118 99 1
w 119 118 -99 0
w 119 -118 99 0
w 119 -118 -99 0
w 120 119 100 0.329509
w 120 119 -100 0.423876
w 120 -119 100 0.734478
w 120 -119 -100 0.975427
w 121 101 0.703528
w 121 -101 0.182944
w 122 121 102 1
w 122 121 -102 0
w 122 -121 102 0
w 122 -121 -102 0
w 123 122 103 1
w 123 122 -103 0
w 123 -122 103 0
w 123 -122 -103 0
w 124 123 104 0.341197
w 124 123 -104 0.282685
w 124 -123 104 0.478567
w 124 -123 -104 0.421514
w 125 124 105 0
w 125 124 -105 0
w 125 -124 105 1
w 125 -124 -105 1
w 126 125 106 0.0112386
w 126 125 -106 0.990803
w 126 -125 106 0.330852
w 126 -125 -106 0.340747
w 127 126 107 0
w 127 126 -107 1
w 127 -126 107 1
w 127 -126 -107 1
w 128 127 108 1
w 128 127 -108 0
w 128 -127 108 1
w 128 -127 -108 1
w 129 128 109 1
w 129 128 -109 0
w 129 -128 109 0
w 129 -128 -109 1
w 130 129 110 0
w 130 129 -110 1
w 130 -129 110 1
w 130 -129 -110 1
w 131 130 111 0.490691
w 131 130 -111 0.245538
w 131 -130 111 0.385976
w 131 -130 -111 0.240327
w 132 131 112 0.397215
w 132 131 -112 0.231131
w 132 -131 112 0.280692
w 132 -131 -112 0.737962
w 133 132 113 0.346023
w 133 132 -113 0.0541361
w 133 -132 113 0.912737
w 133 -132 -113 0.114881
w 134 133 114 0.585966
w 134 133 -114 0.202145
w 134 -133 114 0.996344
w 134 -133 -114 0.0950908
w 135 134 115 0
w 135 134 -115 0
w 135 -134 115 1
w 135 -134 -115 0
w 136 135 116 0.868924
w 136 135 -116 0.919875
w 136 -135 116 0.121034
w 136 -135 -116 0.55467
w 137 136 117 0.879203
w 137 136 -117 0.0453611
w 137 -136 117 0.958002
w 137 -136 -117 0.265178
w 138 137 118 0
w 138 137 -118 1
w 138 -137 118 1
w 138 -137 -118 1
w 139 138 119 1
w 139 138 -119 1
w 139 -138 119 1
w 139 -138 -119 0
w 140 139 120 0.00774503
w 140 139 -120 0.661333
w 140 -139 120 0.851584
w 140 -139 -120 0.00408883
w 141 121 0.0930489
w 141 -121 0.52301
w 142 141 122 0.754793
w 142 141 -122 0.0718091
w 142 -141 122 0.494814
w 142 -141 -122 0.623717
w 143 142 123 0.615848
w 143 142 -123 0.178387
w 143 -142 123 0.704148
w 143 -142 -123 0.495051
w 144 143 124 0
w 144 143 -124 0
w 144 -143 124 1
w 144 -143 -124 1
w 145 144 125 1
w 145 144 -125 0
w 145 -144 125 1
w 145 -144 -125 0
w 146 145 126 0
w 146 145 -126 0
w 146 -145 126 1
w 146 -145 -126 1
w 147 146 127 0.794106
w 147 146 -127 0.289302
w 147 -146 127 0.682007
w 147 -146 -127 0.887155
w 148 147 128 0.651241
w 148 147 -128 0.641948
w 148 -147 128 0.88412
w 148 -147 -128 0.146055
w 149 148 129 1
w 149 148 -129 1
w 149 -148 129 1
w 149 -148 -129 0
w 150 149 130 0
w 150 149 -130 0
w 150 -149 130 0
w 150 -149 -130 1
w 151 150 131 1
w 151 150 -131 0
w 151 -150 131 1
w 151 -150 -131 1
w 152 151 132 0.540249
w 152 151 -132 0.656627
w 152 -151 132 0.806228
w 152 -151 -132 0.825462
w 153 152 133 0.600334
w 153 152 -133 0.114764
w 153 -152 133 0.264217
w 153 -152 -133 0.487489
w 154 153 134 0.915458
w 154 153 -134 0.129436
w 154 -153 134 0.811195
w 154 -153 -134 0.061513
w 155 154 135 1
w 155 154 -135 1
w 155 -154 135 0
w 155 -154 -135 1
w 156 155 136 0
w 156 155 -136 0
w 156 -155 136 0
w 156 -155 -136 1
w 157 156 137 0.887679
w 157 156 -137 0.891774
w 157 -156 137 0.800136
w 157 -156 -137 0.280055
w 158 157 138 0.340385
w 158 157 -138 0.936682
w 158 -157 138 0.561709
w 158 -157 -138 0.165847
w 159 158 139 0.162043
w 159 158 -139 0.280611
w 159 -158 139 0.78311
w 159 -158 -139 0.649532
w 160 159 140 0
w 160 159 -140 0
w 160 -159 140 1
w 160 -159 -140 1
w 161 141 1
w 161 -141 0
w 162 161 142 0.0132216
w 162 161 -142 0.972833
w 162 -161 142 0.663866
w 162 -161 -142 0.520174
w 163 162 143 1
w 163 162 -143 0
w 163 -162 143 0
w 163 -162 -143 1
w 164 163 144 1
w 164 163 -144 0
w 164 -163 144 0
w 164 -163 -144 0
w 165 164 145 1
w 165 164 -145 0
w 165 -164 145 1
w 165 -164 -145 0
w 166 165 146 1
w 166 165 -146 0
w 166 -165 146 1
w 166 -165 -146 1
w 167 166 147 0.112318
w 167 166 -147 0.0694322
w 167 -166 147 0.776615
w 167 -166 -147 0.818198
w 168 167 148 0.789837
w 168 167 -148 0.791031
w 168 -167 148 0.316796
w 168 -167 -148 0.31001
w 169 168 149 0
w 169 168 -149 0
w 169 -168 149 0
w 169 -168 -149 1
w 170 169 150 0.770773
w 170 169 -150 0.475894
w 170 -169 150 0.978509
w 170 -169 -150 0.221068
w 171 170 151 0.287287
w 171 170 -151 0.233071
w 171 -170 151 0.520329
w 171 -170 -151 0.114959
w 172 171 152 1
w 172 171 -152 0
w 172 -171 152 0
w 172 -171 -152 0
w 173 172 153 1
w 173 172 -153 0
w 173 -172 153 0
w 173 -172 -153 1
w 174 173 154 1
w 174 173 -154 0
w 174 -173 154 0
w 174 -173 -154 1
w 175 174 155 0.493984
w 175 174 -155 0.152461
w 175 -174 155 0.224075
w 175 -174 -155 0.569943
w 176 175 156 0.830488
w 176 175 -156 0.340716
w 176 -175 156 0.00533954
w 176 -175 -156 0.808996
w 177 176 157 0.920527
w 177 176 -157 0.0962836
w 177 -176 157 0.794855
w 177 -176 -157 0.440856
w 178 177 158 1
w 178 177 -158 1
w 178 -177 158 1
w 178 -177 -158 0
w 179 178 159 1
w 179 178 -159 0
w 179 -178 159 1
w 179 -178 -159 1
w 180 179 160 1
w 180 179 -160 1
w 180 -179 160 1
w 180 -179 -160 0
w 181 161 0.103372
w 181 -161 0.06076
w 182 181 162 1
w 182 181 -162 0
w 182 -181 162 1
w 182 -181 -162 0
w 183 182 163 0.848722
w 183 182 -163 0.575816
w 183 -182 163 0.516073
w 183 -182 -163 0.945006
w 184 183 164 1
w 184 183 -164 0
w 184 -183 164 1
w 184 -183 -164 0
w 185 184 165 1
w 185 184 -165 1
w 185 -184 165 0
w 185 -184 -165 0
w 186 185 166 0
w 186 185 -166 1
w 186 -185 166 0
w 186 -185 -166 1
w 187 186 167 0
w 187 186 -167 1
w 187 -186 167 1
w 187 -186 -167 0
w 188 187 168 0.616847
w 188 187 -168 0.883004
w 188 -187 168 0.535219
w 188 -187 -168 0.656572
w 189 188 169 0.130764
w 189 188 -169 0.505294
w 189 -188 169 0.472851
w 189 -188 -169 0.646837
w 190 189 170 0
w 190 189 -170 1
w 190 -189 170 0
w 190 -189 -170 1
w 191 190 171 0
w 191 190 -171 0
w 191 -190 171 1
w 191 -190 -171 0
w 192 191 172 0.666555
w 192 191 -172 0.906988
w 192 -191 172 0.839686
w 192 -191 -172 0.163486
w 193 192 173 0.262132
w 193 192 -173 0.269803
w 193 -192 173 0.767195
w 193 -192 -173 0.669741
w 194 193 174 1
w 194 193 -174 0
w 194 -193 174 1
w 194 -193 -174 0
w 195 194 175 0.259533
w 195 194 -175 0.378192
w 195 -194 175 0.448454
w 195 -194 -175 0.732384
w 196 195 176 1
w 196 195 -176 1
w 196 -195 176 0
w 196 -195 -176 1
w 197 196 177 0.036424
w 197 196 -177 0.205081
w 197 -196 177 0.413549
w 197 -196 -177 0.594372
w 198 197 178 0.106248
w 198 197 -178 0.260927
w 198 -197 178 0.877154
w 198 -197 -178 0.945934
w 199 198 179 0
w 199 198 -179 1
w 199 -198 179 0
w 199 -198 -179 0
w 200 199 180 0.173709
w 200 199 -180 0.2395
w 200 -199 180 0.164394
w 200 -199 -180 0.536207
w 201 181 1
w 201 -181 0
w 202 201 182 0.865119
w 202 201 -182 0.556008
w 202 -201 182 0.528124
w 202 -201 -182 0.890147
w 203 202 183 0
w 203 202 -183 1
w 203 -202 183 0
w 203 -202 -183 0
w 204 203 184 0.165146
w 204 203 -184 0.509652
w 204 -203 184 0.149738
w 204 -203 -184 0.135312
w 205 204 185 0.410665
w 205 204 -185 0.0124664
w 205 -204 185 0.561833
w 205 -204 -185 0.835078
w 206 205 186 0.769898
w 206 205 -186 0.529295
w 206 -205 186 0.299855
w 206 -205 -186 0.647705
w 207 206 187 0.539354
w 207 206 -187 0.812098
w 207 -206 187 0.239211
w 207 -206 -187 0.0262816
w 208 207 188 0.0349503
w 208 207 -188 0.8914
w 208 -207 188 0.47566
w 208 -207 -188 0.563074
w 209 208 189 0.930422
w 209 208 -189 0.667104
w 209 -208 189 0.300489
w 209 -208 -189 0.890487
w 210 209 190 0.855855
w 210 209 -190 0.0556327
w 210 -209 190 0.272858
w 210 -209 -190 0.00559271
w 211 210 191 0
w 211 210 -191 1
w 211 -210 191 0
w 211 -210 -191 1
w 212 211 192 0
w 212 211 -192 0
w 212 -211 192 1
w 212 -211 -192 1
w 213 212 193 0.483635
w 213 212 -193 0.815183
w 213 -212 193 0.680292
w 213 -212 -193 0.722846
w 214 213 194 0.599944
w 214 213 -194 0.757796
w 214 -213 194 0.732865
w 214 -213 -194 0.0756039
w 215 214 195 0
w 215 214 -195 1
w 215 -214 195 0
w 215 -214 -195 0
w 216 215 196 0.751181
w 216 215 -196 0.670757
w 216 -215 196 0.952146
w 216 -215 -196 0.0240389
w 217 216 197 0.143091
w 217 216 -197 0.912796
w 217 -216 197 0.0926079
w 217 -216 -197 0.346502
w 218 217 198 1
w 218 217 -198 0
w 218 -217 198 1
w 218 -217 -198 1
w 219 218 199 0.452068
w 219 218 -199 0.608211
w 219 -218 199 0.413488
w 219 -218 -199 0.132359
w 220 219 200 0
w 220 219 -200 0
w 220 -219 200 1
w 220 -219 -200 1
w 221 201 0.409724
w 221 -201 0.502231
w 222 221 202 0.397698
w 222 221 -202 0.317133
w 222 -221 202 0.710446
w 222 -221 -202 0.148879
w 223 222 203 0.662592
w 223 222 -203 0.172918
w 223 -222 203 0.66424
w 223 -222 -203 0.805683
w 224 223 204 1
w 224 223 -204 1
w 224 -223 204 0
w 224 -223 -204 1
w 225 224 205 1
w 225 224 -205 0
w 225 -224 205 0
w 225 -224 -205 0
w 226 225 206 0.164635
w 226 225 -206 0.741407
w 226 -225 206 0.349705
w 226 -225 -206 0.253488
w 227 226 207 0.157612
w 227 226 -207 0.663212
w 227 -226 207 0.231456
w 227 -226 -207 0.971545
w 228 227 208 0
w 228 227 -208 1
w 228 -227 208 1
w 228 -227 -208 1
w 229 228 209 0
w 229 228 -209 1
w 229 -228 209 0
w 229 -228 -209 0
w 230 229 210 0
w 230 229 -210 0
w 230 -229 210 1
w 230 -229 -210 1
w 231 230 211 1
w 231 230 -211 1
w 231 -230 211 0
w 231 -230 -211 1
w 232 231 212 1
w 232 231 -212 1
w 232 -231 212 0
w 232 -231 -212 0
w 233 232 213 0.560261
w 233 232 -213 0.198642
w 233 -232 213 0.0386184
w 233 -232 -213 0.531807
w 234 233 214 0
w 234 233 -214 1
w 234 -233 214 1
w 234 -233 -214 0
w 235 234 215 0.85205
w 235 234 -215 0.324408
w 235 -234 215 0.708648
w 235 -234 -215 0.320472
w 236 235 216 1
w 236 235 -216 0
w 236 -235 216 0
w 236 -235 -216 0
w 237 236 217 0
w 237 236 -217 0
w 237 -236 217 0
w 237 -236 -217 1
w 238 237 218 0.676979
w 238 237 -218 0.0233145
w 238 -237 218 0.052756
w 238 -237 -218 0.0796287
w 239 238 219 0.859918
w 239 238 -219 0.63989
w 239 -238 219 0.757386
w 239 -238 -219 0.898537
w 240 239 220 0
w 240 239 -220 0
w 240 -239 220 1
w 240 -239 -220 1
w 241 221 0.943876
w 241 -221 0.33833
w 242 241 222 0.652524
w 242 241 -222 0.658802
w 242 -241 222 0.215816
w 242 -241 -222 0.663623
w 243 242 223 0.556153
w 243 242 -223 0.451834
w 243 -242 223 0.0852921
w 243 -242 -223 0.180219
w 244 243 224 0
w 244 243 -224 1
w 244 -243 224 1
w 244 -243 -224 0
w 245 244 225 0.117696
w 245 244 -225 0.465936
w 245 -244 225 0.50365
w 245 -244 -225 0.977614
w 246 245 226 1
w 246 245 -226 0
w 246 -245 226 0
w 246 -245 -226 1
w 247 246 227 1
w 247 246 -227 1
w 247 -246 227 1
w 247 -246 -227 0
w 248 247 228 0
w 248 247 -228 1
w 248 -247 228 1
w 248 -247 -228 0
w 249 248 229 0.658186
w 249 248 -229 0.677135
w 249 -248 229 0.374875
w 249 -248 -229 0.743478
w 250 249 230 0.464996
w 250 249 -230 0.452805
w 250 -249 230 0.778945
w 250 -249 -230 0.529936
w 251 250 231 0.723851
w 251 250 -231 0.647631
w 251 -250 231 0.305048
w 251 -250 -231 0.227501
w 252 251 232 0.410874
w 252 251 -232 0.488538
w 252 -251 232 0.501396
w 252 -251 -232 0.688396
w 253 252 233 0.863291
w 253 252 -233 0.351413
w 253 -252 233 0.530768
w 253 -252 -233 0.834619
w 254 253 234 0.633353
w 254 253 -234 0.739785
w 254 -253 234 0.217725
w 254 -253 -234 0.394741
w 255 254 235 0.140766
w 255 254 -235 0.0529262
w 255 -254 235 0.537903
w 255 -254 -235 0.51564
w 256 255 236 0.395257
w 256 255 -236 0.980636
w 256 -255 236 0.249209
w 256 -255 -236 0.174203
w 257 256 237 0.0883214
w 257 256 -237 0.898054
w 257 -256 237 0.158203
w 257 -256 -237 0.393369
w 258 257 238 1
w 258 257 -238 1
w 258 -257 238 0
w 258 -257 -238 0
w 259 258 239 1
w 259 258 -239 1
w 259 -258 239 1
w 259 -258 -239 0
w 260 259 240 0.80236
w 260 259 -240 0.544727
w 260 -259 240 0.72254
w 260 -259 -240 0.0200846
w 261 241 0.583308
w 261 -241 0.16085
w 262 261 242 0.121211
w 262 261 -242 0.676491
w 262 -261 242 0.788798
w 262 -261 -242 0.516469
w 263 262 243 0.038007
w 263 262 -243 0.690671
w 263 -262 243 0.167699
w 263 -262 -243 0.126328
w 264 263 244 0.325903
w 264 263 -244 0.519698
w 264 -263 244 0.71428
w 264 -263 -244 0.109351
w 265 264 245 0
w 265 264 -245 0
w 265 -264 245 1
w 265 -264 -245 1
w 266 265 246 0.660634
w 266 265 -246 0.620353
w 266 -265 246 0.525087
w 266 -265 -246 0.462994
w 267 266 247 1
w 267 266 -247 0
w 267 -266 247 0
w 267 -266 -247 0
w 268 267 248 0.0969429
w 268 267 -248 0.952146
w 268 -267 248 0.320419
w 268 -267 -248 0.885741
w 269 268 249 1
w 269 268 -249 0
w 269 -268 249 0
w 269 -268 -249 0
w 270 269 250 0
w 270 269 -250 0
w 270 -269 250 1
w 270 -269 -250 0
w 271 270 251 0.893715
w 271 270 -251 0.790665
w 271 -270 251 0.974696
w 271 -270 -251 0.710296
w 272 271 252 1
w 272 271 -252 0
w 272 -271 252 0
w 272 -271 -252 1
w 273 272 253 0.285078
w 273 272 -253 0.289742
w 273 -272 253 0.317002
w 273 -272 -253 0.389627
w 274 273 254 0
w 274 273 -254 1
w 274 -273 254 1
w 274 -273 -254 0
w 275 274 255 1
w 275 274 -255 0
w 275 -274 255 0
w 275 -274 -255 0
w 276 275 256 1
w 276 275 -256 0
w 276 -275 256 0
w 276 -275 -256 0
w 277 276 257 0.455791
w 277 276 -257 0.809624
w 277 -276 257 0.701692
w 277 -276 -257 0.430487
w 278 277 258 0.201336
w 278 277 -258 0.947514
w 278 -277 258 0.89085
w 278 -277 -258 0.321333
w 279 278 259 0.724774
w 279 278 -259 0.606411
w 279 -278 259 0.27937
w 279 -278 -259 0.0417755
w 280 279 260 0.400047
w 280 279 -260 0.00270571
w 280 -279 260 0.482607
w 280 -279 -260 0.47287
w 281 261 0
w 281 -261 1
w 282 281 262 0
w 282 281 -262 0
w 282 -281 262 1
w 282 -281 -262 0
w 283 282 263 1
w 283 282 -263 0
w 283 -282 263 0
w 283 -282 -263 0
w 284 283 264 1
w 284 283 -264 0
w 284 -283 264 1
w 284 -283 -264 1
w 285 284 265 0.656177
w 285 284 -265 0.633416
w 285 -284 265 0.299158
w 285 -284 -265 0.645806
w 286 285 266 0
w 286 285 -266 0
w 286 -285 266 1
w 286 -285 -266 0
w 287 286 267 0
w 287 286 -267 1
w 287 -286 267 0
w 287 -286 -267 0
w 288 287 268 1
w 288 287 -268 0
w 288 -287 268 0
w 288 -287 -268 0
w 289 288 269 0
w 289 288 -269 1
w 289 -288 269 1
w 289 -288 -269 0
w 290 289 270 0.277334
w 290 289 -270 0.522884
w 290 -289 270 0.54249
w 290 -289 -270 0.985997
w 291 290 271 0
w 291 290 -271 0
w 291 -290 271 1
w 291 -290 -271 0
w 292 291 272 1
w 292 291 -272 0
w 292 -291 272 0
w 292 -291 -272 0
w 293 292 273 0.53838
w 293 292 -273 0.0596916
w 293 -292 273 0.0108632
w 293 -292 -273 0.336474
w 294 293 274 0.249995
w 294 293 -274 0.148876
w 294 -293 274 0.976096
w 294 -293 -274 0.640103
w 295 294 275 0.152868
w 295 294 -275 0.527323
w 295 -294 275 0.367516
w 295 -294 -275 0.152026
w 296 295 276 0.133518
w 296 295 -276 0.42936
w 296 -295 276 0.350447
w 296 -295 -276 0.676008
w 297 296 277 1
w 297 296 -277 0
w 297 -296 277 1
w 297 -296 -277 0
w 298 297 278 1
w 298 297 -278 1
w 298 -297 278 0
w 298 -297 -278 1
w 299 298 279 0
w 299 298 -279 1
w 299 -298 279 0
w 299 -298 -279 1
w 300 299 280 1
w 300 299 -280 0
w 300 -299 280 1
w 300 -299 -280 0
w 301 281 1
w 301 -281 0
w 302 301 282 1
w 302 301 -282 0
w 302 -301 282 1
w 302 -301 -282 0
w 303 302 283 0.945298
w 303 302 -283 0.973783
w 303 -302 283 0.435751
w 303 -302 -283 0.360655
w 304 303 284 0.632075
w 304 303 -284 0.418185
w 304 -303 284 0.104442
w 304 -303 -284 0.647872
w 305 304 285 0.87626
w 305 304 -285 0.388711
w 305 -304 285 0.322361
w 305 -304 -285 0.305098
w 306 305 286 0.419407
w 306 305 -286 0.793629
w 306 -305 286 0.134551
w 306 -305 -286 0.852928
w 307 306 287 0
w 307 306 -287 1
w 307 -306 287 0
w 307 -306 -287 1
w 308 307 288 0.603534
w 308 307 -288 0.82712
w 308 -307 288 0.320257
w 308 -307 -288 0.119472
w 309 308 289 0
w 309 308 -289 1
w 309 -308 289 0
w 309 -308 -289 1
w 310 309 290 0
w 310 309 -290 1
w 310 -309 290 0
w 310 -309 -290 0
w 311 310 291 0.607305
w 311 310 -291 0.99462
w 311 -310 291 0.184409
w 311 -310 -291 0.929665
w 312 311 292 0
w 312 311 -292 0
w 312 -311 292 1
w 312 -311 -292 1
w 313 312 293 1
w 313 312 -293 1
w 313 -312 293 1
w 313 -312 -293 0
w 314 313 294 0.331357
w 314 313 -294 0.965078
w 314 -313 294 0.696523
w 314 -313 -294 0.651614
w 315 314 295 0
w 315 314 -295 1
w 315 -314 295 0
w 315 -314 -295 1
w 316 315 296 0
w 316 315 -296 1
w 316 -315 296 0
w 316 -315 -296 0
w 317 316 297 0.190889
w 317 316 -297 0.0256604
w 317 -316 297 0.698115
w 317 -316 -297 0.375299
w 318 317 298 0.997834
w 318 317 -298 0.315907
w 318 -317 298 0.304399
w 318 -317 -298 0.0911809
w 319 318 299 1
w 319 318 -299 0
w 319 -318 299 1
w 319 -318 -299 0
w 320 319 300 0.0985247
w 320 319 -300 0.47508
w 320 -319 300 0.539728
w 320 -319 -300 0.795048
w 321 301 0
w 321 -301 1
w 322 321 302 0.858308
w 322 321 -302 0.773599
w 322 -321 302 0.513244
w 322 -321 -302 0.105674
w 323 322 303 1
w 323 322 -303 0
w 323 -322 303 0
w 323 -322 -303 0
w 324 323 304 0.792361
w 324 323 -304 0.499991
w 324 -323 304 0.0670529
w 324 -323 -304 0.747687
w 325 324 305 1
w 325 324 -305 1
w 325 -324 305 0
w 325 -324 -305 1
w 326 325 306 0.80211
w 326 325 -306 0.00314693
w 326 -325 306 0.702208
w 326 -325 -306 0.376759
w 327 326 307 1
w 327 326 -307 1
w 327 -326 307 1
w 327 -326 -307 0
w 328 327 308 0.162291
w 328 327 -308 0.314363
w 328 -327 308 0.351991
w 328 -327 -308 0.267964
w 329 328 309 0.450371
w 329 328 -309 0.768829
w 329 -328 309 0.429409
w 329 -328 -309 0.252246
w 330 329 310 1
w 330 329 -310 0
w 330 -329 310 1
w 330 -329 -310 1
w 331 330 311 0.021542
w 331 330 -311 0.839067
w 331 -330 311 0.684621
w 331 -330 -311 0.580026
w 332 331 312 0.687768
w 332 331 -312 0.282234
w 332 -331 312 0.017936
w 332 -331 -312 0.78944
w 333 332 313 0
w 333 332 -313 1
w 333 -332 313 0
w 333 -332 -313 1
w 334 333 314 0.925795
w 334 333 -314 0.789551
w 334 -333 314 0.876897
w 334 -333 -314 0.193759
w 335 334 315 0
w 335 334 -315 1
w 335 -334 315 0
w 335 -334 -315 1
w 336 335 316 1
w 336 335 -316 0
w 336 -335 316 1
w 336 -335 -316 1
w 337 336 317 0.861404
w 337 336 -317 0.0944358
w 337 -336 317 0.420879
w 337 -336 -317 0.546026
w 338 337 318 0.0620553
w 338 337 -318 0.233794
w 338 -337 318 0.956696
w 338 -337 -318 0.0799913
w 339 338 319 0
w 339 338 -319 0
w 339 -338 319 1
w 339 -338 -319 0
w 340 339 320 0
w 340 339 -320 1
w 340 -339 320 0
w 340 -339 -320 1
w 341 321 0
w 341 -321 1
w 342 341 322 1
w 342 341 -322 0
w 342 -341 322 0
w 342 -341 -322 1
w 343 342 323 0.34973
w 343 342 -323 0.635844
w 343 -342 323 0.78941
w 343 -342 -323 0.931542
w 344 343 324 0
w 344 343 -324 0
w 344 -343 324 1
w 344 -343 -324 0
w 345 344 325 1
w 345 344 -325 0
w 345 -344 325 0
w 345 -344 -325 1
w 346 345 326 0.508881
w 346 345 -326 0.00969616
w 346 -345 326 0.110944
w 346 -345 -326 0.998482
w 347 346 327 0
w 347 346 -327 1
w 347 -346 327 1
w 347 -346 -327 0
w 348 347 328 0
w 348 347 -328 1
w 348 -347 328 1
w 348 -347 -328 0
w 349 348 329 0
w 349 348 -329 0
w 349 -348 329 1
w 349 -348 -329 1
w 350 349 330 0
w 350 349 -330 1
w 350 -349 330 1
w 350 -349 -330 1
w 351 350 331 0.859804
w 351 350 -331 0.916071
w 351 -350 331 0.0852078
w 351 -350 -331 0.354271
w 352 351 332 0
w 352 351 -332 0
w 352 -351 332 1
w 352 -351 -332 1
w 353 352 333 0.470066
w 353 352 -333 0.343834
w 353 -352 333 0.139269
w 353 -352 -333 0.825259
w 354 353 334 0.148315
w 354 353 -334 0.618918
w 354 -353 334 0.637171
w 354 -353 -334 0.77044
w 355 354 335 1
w 355 354 -335 1
w 355 -354 335 0
w 355 -354 -335 0
w 356 355 336 1
w 356 355 -336 0
w 356 -355 336 1
w 356 -355 -336 0
w 357 356 337 0
w 357 356 -337 1
w 357 -356 337 1
w 357 -356 -337 1
w 358 357 338 0
w 358 357 -338 1
w 358 -357 338 1
w 358 -357 -338 1
w 359 358 339 0
w 359 358 -339 0
w 359 -358 339 0
w 359 -358 -339 1
w 360 359 340 1
w 360 359 -340 0
w 360 -359 340 0
w 360 -359 -340 0
w 361 341 0
w 361 -341 1
w 362 361 342 0.236125
w 362 361 -342 0.728256
w 362 -361 342 0.186913
w 362 -361 -342 0.473256
w 363 362 343 0
w 363 362 -343 1
w 363 -362 343 0
w 363 -362 -343 1
w 364 363 344 0.533211
w 364 363 -344 0.763042
w 364 -363 344 0.445953
w 364 -363 -344 0.877446
w 365 364 345 0
w 365 364 -345 0
w 365 -364 345 1
w 365 -364 -345 0
w 366 365 346 1
w 366 365 -346 0
w 366 -365 346 0
w 366 -365 -346 0
w 367 366 347 0
w 367 366 -347 0
w 367 -366 347 0
w 367 -366 -347 1
w 368 367 348 1
w 368 367 -348 1
w 368 -367 348 0
w 368 -367 -348 0
w 369 368 349 0.451958
w 369 368 -349 0.104068
w 369 -368 349 0.277459
w 369 -368 -349 0.995205
w 370 369 350 0.818974
w 370 369 -350 0.528415
w 370 -369 350 0.28106
w 370 -369 -350 0.264927
w 371 370 351 0
w 371 370 -351 0
w 371 -370 351 1
w 371 -370 -351 1
w 372 371 352 0
w 372 371 -352 1
w 372 -371 352 1
w 372 -371 -352 0
w 373 372 353 0.912735
w 373 372 -353 0.725443
w 373 -372 353 0.754038
w 373 -372 -353 0.860336
w 374 373 354 0.0646534
w 374 373 -354 0.796561
w 374 -373 354 0.653159
w 374 -373 -354 0.103525
w 375 374 355 0.208335
w 375 374 -355 0.555483
w 375 -374 355 0.0237671
w 375 -374 -355 0.485794
w 376 375 356 0.541785
w 376 375 -356 0.304768
w 376 -375 356 0.079103
w 376 -375 -356 0.822845
w 377 376 357 0.484964
w 377 376 -357 0.432412
w 377 -376 357 0.201444
w 377 -376 -357 0.975658
w 378 377 358 1
w 378 377 -358 1
w 378 -377 358 1
w 378 -377 -358 0
w 379 378 359 0.85303
w 379 378 -359 0.0149415
w 379 -378 359 0.352344
w 379 -378 -359 0.607068
w 380 379 360 0.923582
w 380 379 -360 0.671721
w 380 -379 360 0.671839
w 380 -379 -360 0.576741
w 381 361 0.591538
w 381 -361 0.785076
w 382 381 362 0
w 382 381 -362 1
w 382 -381 362 1
w 382 -381 -362 1
w 383 382 363 0.960519
w 383 382 -363 0.979935
w 383 -382 363 0.145332
w 383 -382 -363 0.445483
w 384 383 364 0
w 384 383 -364 0
w 384 -383 364 1
w 384 -383 -364 0
w 385 384 365 0
w 385 384 -365 0
w 385 -384 365 1
w 385 -384 -365 0
w 386 385 366 0
w 386 385 -366 0
w 386 -385 366 1
w 386 -385 -366 0
w 387 386 367 0
w 387 386 -367 1
w 387 -386 367 0
w 387 -386 -367 0
w 388 387 368 1
w 388 387 -368 1
w 388 -387 368 1
w 388 -387 -368 0
w 389 388 369 0.603165
w 389 388 -369 0.297831
w 389 -388 369 0.372855
w 389 -388 -369 0.0155126
w 390 389 370 0.793997
w 390 389 -370 0.589882
w 390 -389 370 0.239639
w 390 -389 -370 0.835345
w 391 390 371 0
w 391 390 -371 1
w 391 -390 371 0
w 391 -390 -371 0
w 392 391 372 1
w 392 391 -372 0
w 392 -391 372 0
w 392 -391 -372 0
w 393 392 373 0.180107
w 393 392 -373 0.346645
w 393 -392 373 0.29527
w 393 -392 -373 0.265543
w 394 393 374 0.872131
w 394 393 -374 0.232396
w 394 -393 374 0.436014
w 394 -393 -374 0.02463
w 395 394 375 1
w 395 394 -375 1
w 395 -394 375 0
w 395 -394 -375 0
w 396 395 376 0.326618
w 396 395 -376 0.644573
w 396 -395 376 0.206708
w 396 -395 -376 0.161964
w 397 396 377 0
w 397 396 -377 1
w 397 -396 377 1
w 397 -396 -377 0
w 398 397 378 1
w 398 397 -378 0
w 398 -397 378 1
w 398 -397 -378 1
w 399 398 379 0.271739
w 399 398 -379 0.871615
w 399 -398 379 0.942655
w 399 -398 -379 0.537282
w 400 399 380 0.814786
w 400 399 -380 0.769678
w 400 -399 380 0.120414
w 400 -399 -380 0.839416